000 000 000 000 000 000 000 000 000 002 003 002 001 001 002 002 004 004 006 008 010 015 019 014 020 014 016 028 026 035 061
000 000 000 000 000 000 000 001 001 002 003 002 002 001 001 001 004 007 008 008 010 011 021 016 014 027 037 037 028 027 036
000 000 000 000 000 000 000 001 001 001 004 003 002 001 001 002 006 006 007 005 010 009 017 010 021 025 028 023 017 025 022
000 000 000 000 000 000 001 000 000 000 003 003 003 003 002 004 007 006 008 006 007 010 013 014 018 031 024 029 018 021 031
000 000 000 000 000 000 000 000 000 000 001 003 002 002 002 003 005 003 006 006 004 003 010 012 013 014 023 028 019 022 024
000 000 000 000 000 000 000 000 000 000 000 002 002 002 002 002 003 002 004 006 004 006 005 006 005 009 020 017 022 024 037
000 000 000 000 000 000 000 000 000 000 000 001 001 002 001 002 001 002 005 004 003 003 003 004 004 006 010 017 016 022 013
000 000 000 000 000 000 000 000 000 000 000 000 001 002 002 001 001 001 003 002 002 002 002 003 003 004 006 014 011 012 007
000 000 000 000 000 000 000 000 000 000 000 000 000 000 001 001 001 001 002 002 001 001 002 002 002 003 003 006 007 009 005
000 000 000 000 000 000 000 000 000 000 000 000 000 000 000 001 001 001 001 001 001 001 001 002 001 002 002 004 003 003 002
000 000 000 000 000 000 000 000 000 000 000 000 000 000 000 000 001 001 001 001 001 001 001 001 001 002 001 002 003 001 001
000 000 000 000 000 000 000 000 000 000 000 000 000 000 000 000 001 001 001 001 001 001 001 001 001 001 001 001 002 000 000
000 000 000 000 000 000 000 000 000 000 000 000 000 000 000 000 001 001 000 001 001 001 001 001 000 000 000 000 000 000 000
000 000 000 000 000 000 000 000 000 000 000 000 000 000 001 001 001 001 001 000 001 000 000 001 000 000 000 000 000 000 000
000 -99 000 000 000 000 000 000 000 000 000 000 000 001 001 001 001 000 001 001 001 000 000 000 000 000 000 000 000 000 -99
000 000 000 000 000 000 000 000 000 000 000 000 000 001 001 001 000 000 000 000 000 000 000 000 000 000 000 000 000 000 -99
000 000 000 000 000 000 000 000 000 000 000 000 000 001 001 001 000 000 000 000 000 000 000 000 000 000 000 000 000 000 -99
000 000 000 000 000 000 000 000 000 000 000 000 000 001 001 001 001 000 000 000 000 000 000 000 000 000 000 000 000 000 -99
000 000 000 000 000 000 000 000 000 000 000 000 000 001 002 001 000 000 000 000 000 000 000 000 000 000 000 -99 000 000 -99
000 000 000 000 000 000 000 000 000 000 000 000 001 001 001 001 000 000 000 000 000 000 000 -99 -99 000 -99 -99 -99 -99 -99
000 000 000 000 000 000 000 000 000 000 000 000 001 002 001 000 000 000 000 000 000 000 000 -99 -99 -99 -99 -99 -99 -99 -99
000 000 000 000 000 000 000 000 000 000 000 000 001 001 001 000 000 000 000 000 000 000 000 -99 -99 -99 -99 -99 -99 -99 -99
000 000 000 000 000 000 000 000 000 000 000 000 001 001 001 000 000 000 000 000 000 000 000 -99 -99 -99 -99 -99 -99 -99 -99
000 000 000 000 000 000 000 000 000 000 000 000 001 001 002 000 000 000 000 000 000 000 000 -99 -99 -99 -99 -99 -99 -99 -99
000 000 000 000 000 000 000 000 000 000 000 001 001 001 001 000 000 000 000 000 000 000 000 -99 -99 -99 -99 -99 -99 -99 -99
000 000 000 000 000 000 000 000 000 000 000 001 001 001 001 000 000 000 000 000 000 000 000 -99 -99 -99 -99 -99 -99 -99 000
000 -99 000 000 000 000 000 000 000 000 000 000 001 003 002 001 000 000 000 000 000 000 000 -99 -99 -99 -99 -99 -99 -99 000
000 000 000 000 000 000 000 000 000 000 000 000 002 001 001 001 001 001 000 000 000 000 000 -99 -99 -99 -99 -99 -99 -99 000
000 000 000 000 000 000 000 000 000 000 000 000 002 001 002 001 001 001 000 000 000 000 -99 -99 -99 -99 -99 -99 -99 -99 000
000 000 000 000 000 000 000 000 000 000 000 000 002 002 001 001 001 001 000 000 000 000 -99 -99 -99 -99 -99 -99 -99 -99 000
-99 000 000 000 000 000 000 000 000 000 000 000 002 001 002 001 000 000 000 000 000 000 -99 000 000 000 -99 -99 -99 -99 -99
000 000 000 000 000 -99 000 000 000 000 000 000 001 001 001 000 000 000 000 000 000 000 000 000 000 000 -99 -99 -99 -99 -99
000 000 000 000 000 000 000 000 000 000 000 000 001 001 001 001 000 000 000 000 000 000 000 000 000 000 -99 -99 -99 -99 -99
000 000 000 000 000 000 000 000 000 000 000 000 000 000 000 000 000 000 000 000 000 000 000 000 000 000 000 000 000 -99 -99
000 000 000 000 000 000 000 000 000 000 000 000 000 000 000 000 000 000 000 000 000 000 000 000 000 000 000 000 000 000 -99
000 000 000 000 000 000 000 000 000 000 000 000 000 000 000 000 000 000 000 000 000 000 000 000 000 000 000 000 000 -99 000
000 000 -99 000 -99 -99 -99 000 000 -99 000 -99 000 000 000 000 000 000 000 000 000 000 000 000 000 000 000 000 000 -99 000
000 -99 -99 000 -99 -99 -99 000 000 -99 -99 -99 -99 000 000 000 000 000 000 000 000 000 000 000 000 000 000 -99 -99 -99 -99
000 -99 000 000 000 -99 -99 -99 -99 -99 -99 -99 000 000 000 000 000 000 -99 000 000 000 000 000 000 -99 000 000 -99 -99 -99
000 000 000 000 000 -99 -99 -99 -99 -99 -99 000 000 000 000 000 000 000 -99 -99 000 -99 000 000 000 000 000 000 -99 -99 -99
000 000 000 000 -99 -99 -99 -99 -99 -99 000 000 000 000 000 000 000 -99 -99 000 -99 -99 -99 000 000 000 000 -99 -99 -99 -99
000 000 -99 -99 -99 -99 -99 -99 -99 000 000 000 000 000 -99 -99 -99 -99 -99 000 -99 -99 -99 000 000 -99 -99 -99 000 000 -99
000 000 -99 -99 -99 -99 -99 000 000 000 000 000 000 000 000 000 -99 -99 -99 000 -99 -99 -99 000 000 -99 -99 -99 000 -99 -99
000 -99 -99 -99 -99 -99 -99 -99 000 000 -99 -99 -99 000 000 000 -99 000 000 000 000 -99 000 000 000 -99 -99 000 000 -99 -99
000 -99 -99 -99 -99 -99 -99 -99 -99 -99 -99 -99 -99 000 000 000 -99 -99 000 000 -99 000 -99 000 000 -99 000 000 000 -99 -99
000 -99 -99 -99 -99 -99 -99 -99 -99 -99 -99 000 -99 000 000 -99 -99 000 000 -99 000 000 000 000 000 -99 000 -99 -99 -99 -99
000 -99 -99 -99 -99 -99 -99 -99 -99 -99 -99 000 000 000 000 -99 -99 000 000 -99 000 000 -99 -99 000 -99 -99 -99 -99 -99 -99
-99 -99 -99 -99 -99 -99 -99 -99 -99 -99 -99 -99 003 000 -99 -99 -99 000 000 -99 000 000 -99 000 000 000 -99 000 000 -99 -99
-99 -99 -99 -99 -99 -99 -99 -99 -99 -99 -99 005 001 000 -99 -99 000 -99 -99 000 000 000 -99 000 000 000 -99 000 000 -99 -99
-99 -99 -99 -99 -99 -99 -99 -99 -99 -99 -99 014 000 000 -99 -99 -99 000 -99 000 000 -99 -99 -99 000 000 -99 000 -99 -99 -99
-99 -99 -99 -99 -99 -99 -99 -99 -99 -99 -99 001 000 000 -99 -99 -99 000 000 000 000 -99 -99 -99 000 -99 000 -99 -99 -99 -99
-99 -99 -99 -99 -99 -99 -99 -99 -99 -99 -99 -99 -99 -99 -99 -99 -99 -99 000 000 -99 -99 -99 -99 -99 -99 -99 -99 -99 -99 -99
-99 -99 -99 -99 -99 -99 -99 -99 -99 -99 -99 -99 -99 -99 -99 -99 -99 000 000 000 -99 -99 -99 -99 -99 -99 -99 -99 -99 -99 -99
-99 -99 -99 -99 -99 -99 -99 -99 -99 -99 -99 -99 -99 -99 -99 -99 -99 000 000 -99 -99 -99 -99 -99 -99 -99 -99 -99 -99 -99 -99
-99 -99 -99 -99 -99 -99 -99 -99 -99 -99 -99 -99 -99 -99 -99 -99 000 000 000 -99 -99 -99 -99 -99 -99 -99 -99 -99 -99 -99 -99
